          13
          30
           1          30           1
           2          30           1
           3          30           1
           4           7          25
           5           9          27
           6           9          27
           7           9          27
           8           2          30
           9           2          30
          10           2          30
          11           7          26
          12           7          26
          13           7          26
